400
750
523
522
521
520
517
515
512
509
509
508
504
501
501
497
495
495
495
494
492
492
489
488
487
487
487
484
483
483
482
481
478
474
471
470
468
468
467
466
464
464
464
463
463
460
459
458
458
457
456
455
455
454
452
451
450
450
448
447
447
447
446
442
440
437
437
436
435
435
434
434
431
430
429
428
428
428
427
427
427
424
423
421
420
420
419
419
419
411
409
408
407
406
405
404
404
403
402
402
401
401
400
400
400
399
399
399
398
398
397
397
394
393
392
390
390
390
388
388
387
386
385
383
380
376
376
376
375
369
367
367
365
364
364
364
363
363
362
362
361
361
360
360
358
357
357
357
355
355
354
353
349
349
347
347
347
347
345
344
344
340
338
336
334
332
330
329
326
326
322
322
321
320
318
318
318
318
313
313
311
310
310
310
309
309
307
307
306
304
304
302
302
298
297
297
295
294
293
291
291
289
289
289
289
287
287
284
282
281
280
279
278
277
276
275
275
274
273
272
271
270
270
269
269
265
264
264
264
263
262
262
261
259
259
257
256
256
256
253
253
251
251
251
249
249
247
243
242
240
238
235
235
234
234
234
232
231
230
229
229
229
229
228
228
227
227
227
226
226
224
224
224
223
223
221
221
221
220
220
219
219
219
218
217
215
215
211
211
211
210
209
207
206
205
205
204
203
202
202
202
201
197
197
197
195
193
192
191
190
189
189
188
188
187
186
185
184
184
184
182
178
178
173
170
168
166
166
163
161
160
158
158
157
156
156
155
150
150
149
148
145
144
143
141
139
139
138
138
135
135
135
134
132
132
131
131
129
128
127
126
126
124
123
122
122
122
120
116
116
115
113
112
112
112
111
110
107
105
105
104
100
100
99
96
95
93
93
92
91
90
87
83
81
80
80
80
79
79
77
76
75
